p wcnf 140 1300
8 -134 137 0
6 -132 -139 0
4 -130 140 0
10 -128 138 0
7 -127 134 0
5 -126 133 0
9 -125 -137 0
4 -124 -140 0
9 -124 -130 0
2 -123 127 0
9 -123 134 0
2 -122 -127 0
7 -121 -130 0
3 -120 127 0
8 -118 -139 0
6 -118 -133 0
2 -118 -124 0
9 -117 -119 0
8 -116 138 0
2 -115 120 0
6 -114 -116 0
2 -113 -126 0
8 -110 -128 0
9 -110 115 0
3 -110 129 0
6 -109 -110 0
10 -108 -136 0
3 -108 -127 0
8 -107 -139 0
6 -107 127 0
8 -106 116 0
6 -106 117 0
2 -105 -137 0
1 -104 -118 0
6 -104 109 0
8 -104 119 0
6 -103 -134 0
5 -103 -112 0
2 -103 124 0
5 -102 108 0
5 -102 133 0
10 -101 -118 0
6 -101 -102 0
2 -101 102 0
3 -100 -129 0
3 -100 107 0
7 -99 -109 0
4 -99 -101 0
3 -98 -130 0
5 -98 106 0
5 -98 107 0
8 -98 117 0
5 -98 138 0
3 -97 -123 0
7 -97 104 0
7 -97 112 0
7 -97 115 0
6 -96 102 0
9 -96 128 0
6 -95 -135 0
3 -95 -119 0
7 -95 110 0
2 -95 130 0
4 -94 -132 0
7 -94 97 0
7 -94 106 0
1 -94 107 0
3 -93 -133 0
2 -93 -122 0
2 -93 -103 0
7 -93 121 0
6 -91 -95 0
2 -91 125 0
3 -91 139 0
7 -90 -99 0
4 -90 131 0
6 -89 -105 0
4 -89 90 0
7 -87 -125 0
7 -87 105 0
7 -87 127 0
2 -86 -132 0
5 -86 -104 0
3 -86 110 0
4 -86 126 0
1 -85 -135 0
9 -85 -121 0
1 -85 -91 0
7 -85 -87 0
8 -85 100 0
6 -85 111 0
8 -85 112 0
5 -84 -136 0
7 -84 -123 0
2 -84 92 0
2 -83 114 0
4 -82 -115 0
2 -82 88 0
5 -82 135 0
4 -81 94 0
3 -81 103 0
2 -81 108 0
9 -81 123 0
4 -80 -129 0
4 -80 -127 0
6 -80 -118 0
7 -80 -95 0
9 -80 106 0
9 -80 130 0
4 -79 -110 0
6 -79 -101 0
6 -79 84 0
4 -79 137 0
10 -78 94 0
8 -77 79 0
7 -77 112 0
1 -77 129 0
6 -76 -137 0
7 -76 -134 0
7 -76 -125 0
4 -76 -81 0
3 -76 108 0
5 -76 115 0
8 -76 123 0
9 -76 129 0
6 -75 -119 0
10 -75 133 0
3 -74 79 0
8 -74 104 0
4 -74 111 0
7 -74 133 0
10 -73 -113 0
5 -73 -100 0
6 -73 -97 0
4 -73 -95 0
9 -73 -81 0
1 -73 77 0
1 -73 96 0
8 -73 122 0
9 -72 -135 0
4 -72 -114 0
4 -72 -111 0
5 -72 -97 0
7 -72 104 0
4 -72 111 0
2 -71 -139 0
4 -71 -98 0
4 -71 -90 0
7 -71 77 0
2 -71 117 0
1 -70 -121 0
2 -70 -115 0
4 -70 -113 0
5 -70 98 0
9 -70 127 0
3 -69 -140 0
2 -69 -110 0
9 -69 -90 0
5 -69 -84 0
8 -69 80 0
3 -69 98 0
2 -69 111 0
8 -68 127 0
7 -68 131 0
6 -67 -124 0
2 -67 -115 0
6 -67 -105 0
7 -67 81 0
2 -67 120 0
4 -67 135 0
5 -66 -135 0
5 -66 -116 0
6 -66 76 0
9 -66 135 0
3 -66 138 0
9 -65 -120 0
1 -65 -115 0
6 -65 -102 0
3 -65 -75 0
8 -65 114 0
7 -65 121 0
3 -64 -90 0
8 -64 -85 0
10 -64 -74 0
7 -64 131 0
7 -64 134 0
3 -63 -123 0
8 -62 -119 0
6 -62 -110 0
7 -62 -102 0
6 -62 -79 0
8 -62 63 0
8 -62 64 0
4 -62 75 0
5 -62 77 0
4 -62 88 0
5 -62 99 0
1 -62 109 0
10 -61 -137 0
7 -61 -94 0
4 -61 76 0
5 -61 84 0
2 -61 131 0
9 -60 -124 0
4 -60 -104 0
4 -60 -86 0
8 -60 81 0
5 -60 85 0
9 -60 111 0
1 -60 119 0
3 -60 140 0
6 -59 -131 0
3 -59 61 0
10 -59 102 0
6 -58 -110 0
9 -58 -103 0
7 -58 -91 0
7 -58 68 0
7 -58 108 0
3 -57 -129 0
4 -57 -95 0
3 -57 -82 0
9 -57 -78 0
2 -57 138 0
6 -57 139 0
4 -56 77 0
5 -55 -130 0
2 -55 -120 0
5 -55 -117 0
5 -55 -116 0
8 -55 -57 0
8 -55 101 0
9 -54 -130 0
9 -54 64 0
7 -54 79 0
3 -54 84 0
3 -54 98 0
5 -54 107 0
7 -54 109 0
2 -53 -104 0
5 -53 -82 0
8 -53 63 0
6 -53 87 0
7 -53 94 0
8 -53 117 0
2 -52 -126 0
6 -52 -116 0
5 -52 -96 0
8 -52 -92 0
3 -52 -83 0
7 -52 -53 0
3 -52 75 0
5 -52 96 0
6 -51 -128 0
4 -51 -122 0
1 -51 -109 0
10 -51 -101 0
8 -51 58 0
2 -51 121 0
4 -51 131 0
3 -50 -108 0
9 -50 -106 0
2 -50 -55 0
1 -50 82 0
7 -50 117 0
8 -49 -137 0
3 -49 94 0
9 -49 106 0
3 -49 110 0
9 -49 130 0
10 -49 138 0
7 -48 86 0
7 -48 96 0
6 -48 104 0
4 -48 112 0
5 -47 -103 0
7 -47 -101 0
9 -47 -100 0
9 -47 -96 0
5 -47 -93 0
2 -47 84 0
6 -47 109 0
7 -46 -98 0
7 -46 -93 0
3 -46 -51 0
10 -46 -48 0
7 -46 54 0
2 -46 91 0
8 -46 109 0
8 -46 114 0
5 -45 -136 0
9 -45 -128 0
7 -45 -64 0
6 -45 71 0
10 -45 97 0
4 -44 -120 0
4 -44 -64 0
3 -44 46 0
3 -44 60 0
5 -44 83 0
2 -43 -105 0
3 -43 -104 0
2 -43 -99 0
8 -43 -89 0
8 -43 -74 0
5 -43 -70 0
4 -43 88 0
5 -43 137 0
4 -42 -121 0
3 -42 -88 0
9 -42 -77 0
6 -42 -70 0
8 -42 70 0
6 -42 79 0
2 -41 -122 0
10 -41 -109 0
6 -41 -83 0
8 -41 -74 0
2 -41 59 0
4 -41 82 0
6 -41 88 0
6 -41 90 0
3 -41 103 0
3 -41 104 0
2 -41 140 0
3 -40 -100 0
6 -40 -75 0
5 -40 74 0
5 -40 76 0
8 -40 77 0
9 -40 91 0
6 -40 121 0
10 -39 -108 0
1 -39 -102 0
5 -39 -74 0
8 -39 62 0
5 -39 129 0
7 -39 131 0
2 -38 -106 0
9 -38 -75 0
9 -38 -55 0
2 -38 56 0
4 -38 64 0
7 -38 67 0
7 -38 74 0
6 -38 116 0
7 -37 -113 0
3 -37 -109 0
4 -37 -47 0
8 -37 44 0
6 -37 61 0
9 -37 67 0
5 -36 -137 0
8 -36 -99 0
2 -36 -57 0
6 -36 -56 0
1 -36 43 0
6 -36 89 0
1 -35 -134 0
5 -35 -131 0
4 -35 -87 0
9 -35 -71 0
2 -35 44 0
4 -35 91 0
10 -35 117 0
5 -35 133 0
1 -34 -123 0
5 -34 131 0
3 -33 56 0
3 -33 89 0
4 -32 -95 0
2 -32 -93 0
3 -32 -63 0
7 -32 -44 0
8 -32 45 0
10 -32 52 0
2 -32 62 0
5 -32 71 0
3 -32 120 0
5 -32 126 0
4 -31 -138 0
8 -31 -124 0
4 -31 46 0
8 -31 122 0
6 -31 137 0
5 -30 -41 0
4 -30 -34 0
6 -30 48 0
1 -30 58 0
4 -30 62 0
2 -30 74 0
4 -30 83 0
3 -29 -76 0
2 -29 -58 0
7 -29 30 0
3 -29 77 0
7 -29 95 0
7 -28 -134 0
7 -28 -101 0
8 -28 -56 0
9 -28 -45 0
9 -28 33 0
9 -28 37 0
2 -28 70 0
6 -28 93 0
7 -28 116 0
2 -27 -119 0
7 -27 -86 0
3 -27 -60 0
3 -27 -56 0
3 -27 -48 0
5 -27 -44 0
10 -27 55 0
6 -27 115 0
3 -27 126 0
6 -26 -135 0
10 -26 -125 0
6 -26 -104 0
2 -26 -63 0
10 -26 -53 0
9 -26 33 0
3 -26 123 0
4 -26 129 0
2 -26 138 0
4 -25 -138 0
10 -25 -116 0
3 -25 46 0
1 -25 64 0
6 -25 137 0
9 -24 -139 0
9 -24 -45 0
5 -24 -28 0
8 -24 47 0
8 -24 99 0
6 -24 119 0
4 -24 128 0
5 -24 140 0
7 -23 -130 0
2 -23 -129 0
6 -23 -113 0
9 -23 -108 0
3 -23 -83 0
2 -23 -77 0
9 -23 -66 0
8 -23 -61 0
4 -23 25 0
5 -23 81 0
8 -23 96 0
8 -23 101 0
6 -23 122 0
8 -23 140 0
7 -22 -120 0
8 -22 -80 0
1 -22 -61 0
8 -22 -41 0
3 -22 33 0
10 -22 76 0
1 -22 78 0
3 -22 85 0
6 -22 88 0
9 -22 95 0
2 -22 127 0
1 -22 130 0
8 -22 133 0
8 -22 137 0
7 -21 -121 0
2 -21 -94 0
3 -21 -93 0
3 -21 -86 0
2 -21 -60 0
8 -21 -37 0
2 -21 57 0
5 -21 78 0
9 -21 103 0
1 -21 108 0
3 -21 109 0
2 -21 131 0
5 -20 -112 0
10 -20 -109 0
10 -20 -97 0
1 -20 -55 0
7 -20 -22 0
7 -20 36 0
8 -20 46 0
8 -20 54 0
5 -20 59 0
10 -20 70 0
8 -20 76 0
5 -20 85 0
3 -20 112 0
4 -20 115 0
5 -20 124 0
4 -20 137 0
5 -19 23 0
2 -19 64 0
2 -19 111 0
1 -19 120 0
3 -18 -66 0
4 -18 -21 0
4 -18 38 0
4 -18 43 0
2 -18 59 0
5 -18 77 0
8 -18 98 0
10 -18 103 0
5 -18 122 0
1 -18 123 0
2 -17 -96 0
9 -17 -89 0
10 -17 -86 0
2 -17 -68 0
9 -17 -62 0
7 -17 -54 0
8 -17 -34 0
7 -17 43 0
5 -17 113 0
3 -17 130 0
7 -16 -129 0
3 -16 -116 0
7 -16 -49 0
9 -16 -31 0
7 -16 -30 0
2 -16 -20 0
3 -16 51 0
1 -16 84 0
3 -16 97 0
4 -15 -115 0
2 -15 -77 0
6 -15 -76 0
6 -15 -47 0
5 -15 38 0
9 -15 107 0
7 -15 120 0
8 -14 -70 0
7 -14 29 0
7 -14 78 0
3 -14 81 0
7 -14 86 0
8 -14 101 0
2 -14 115 0
7 -13 -117 0
9 -13 -106 0
1 -13 -105 0
5 -13 -99 0
7 -13 -38 0
8 -13 17 0
9 -13 56 0
9 -12 -135 0
5 -12 -23 0
2 -12 21 0
7 -12 26 0
4 -12 31 0
8 -12 79 0
8 -12 104 0
6 -12 105 0
8 -12 110 0
1 -12 137 0
8 -11 -104 0
9 -11 -19 0
6 -11 13 0
5 -11 81 0
4 -11 89 0
5 -11 126 0
2 -10 -139 0
2 -10 -96 0
2 -10 101 0
8 -10 107 0
5 -10 109 0
8 -10 110 0
6 -10 118 0
6 -9 -105 0
6 -9 -72 0
6 -9 -43 0
6 -9 -41 0
9 -9 -34 0
3 -9 -32 0
4 -9 -31 0
8 -9 40 0
2 -9 65 0
8 -9 69 0
10 -9 117 0
8 -9 135 0
2 -8 -44 0
8 -8 42 0
6 -8 79 0
6 -8 102 0
6 -8 121 0
6 -8 126 0
5 -7 -130 0
5 -7 -104 0
2 -7 -103 0
8 -7 -29 0
8 -7 24 0
6 -7 73 0
9 -7 76 0
10 -7 91 0
7 -7 103 0
7 -6 -138 0
4 -6 -107 0
5 -6 -104 0
4 -6 -99 0
9 -6 -66 0
9 -6 -46 0
8 -6 -33 0
6 -6 -27 0
9 -6 12 0
1 -6 30 0
9 -6 40 0
7 -6 49 0
3 -6 52 0
6 -6 81 0
7 -6 122 0
10 -6 129 0
7 -5 -111 0
4 -5 -27 0
6 -5 -17 0
3 -5 72 0
9 -5 101 0
2 -5 140 0
7 -4 -135 0
5 -4 -110 0
3 -4 -109 0
6 -4 -80 0
3 -4 -62 0
7 -4 34 0
5 -3 -121 0
3 -3 -60 0
4 -3 -43 0
3 -3 58 0
6 -3 72 0
8 -3 73 0
5 -3 98 0
6 -3 118 0
7 -2 -109 0
4 -2 -61 0
2 -2 129 0
6 -1 -138 0
4 -1 -83 0
9 -1 -46 0
3 -1 70 0
5 -1 73 0
6 -1 75 0
8 -1 82 0
5 -1 114 0
3 1 -140 0
3 1 -118 0
10 1 -104 0
5 1 -83 0
2 1 -58 0
1 1 -29 0
3 1 88 0
6 1 106 0
3 2 -112 0
7 2 -34 0
8 2 -20 0
9 2 -5 0
3 3 -139 0
1 3 -117 0
3 3 86 0
4 3 103 0
7 3 116 0
9 3 137 0
8 4 -75 0
3 4 -47 0
6 4 -35 0
2 4 14 0
3 4 17 0
2 4 18 0
5 4 39 0
3 4 83 0
4 4 87 0
9 5 -132 0
8 5 -103 0
2 5 -84 0
4 5 -60 0
9 5 -7 0
3 5 45 0
4 5 64 0
5 5 86 0
5 5 111 0
4 5 118 0
6 5 123 0
10 6 -140 0
6 6 -136 0
3 6 -123 0
8 6 -101 0
5 6 -44 0
5 6 -43 0
8 6 -19 0
7 6 -7 0
8 6 70 0
5 7 -133 0
6 7 -123 0
6 7 -89 0
7 7 -66 0
2 7 -34 0
7 7 -28 0
9 7 10 0
3 7 17 0
2 7 45 0
2 7 77 0
6 7 98 0
1 7 111 0
8 7 112 0
7 7 118 0
4 8 -93 0
8 8 -25 0
10 8 -22 0
7 8 -19 0
2 8 10 0
4 8 111 0
1 8 113 0
7 9 -130 0
4 9 -90 0
6 9 -74 0
10 9 -37 0
1 9 -24 0
10 9 -10 0
5 9 42 0
9 9 56 0
6 9 67 0
3 9 118 0
3 9 126 0
2 10 -121 0
8 10 -88 0
9 10 -82 0
4 10 26 0
6 10 50 0
8 10 115 0
6 10 117 0
7 10 118 0
9 11 -99 0
3 11 -55 0
7 11 -30 0
7 11 23 0
9 11 80 0
1 11 107 0
5 12 -139 0
8 12 -122 0
7 12 -101 0
6 12 -77 0
2 12 -35 0
7 12 -22 0
3 12 31 0
5 12 50 0
3 13 -121 0
3 13 -29 0
5 13 26 0
3 13 27 0
7 13 74 0
4 13 94 0
8 13 102 0
9 13 103 0
6 13 115 0
10 14 -118 0
7 14 -82 0
5 14 -55 0
4 14 -19 0
3 14 24 0
3 14 29 0
9 14 97 0
8 14 110 0
1 14 111 0
2 15 -114 0
5 15 -79 0
7 15 -77 0
9 15 -76 0
5 15 22 0
2 15 27 0
7 15 33 0
3 15 37 0
6 15 59 0
8 15 75 0
9 15 106 0
9 15 128 0
3 16 -140 0
2 16 -130 0
2 16 -121 0
7 16 -80 0
4 16 -59 0
8 16 -44 0
10 16 26 0
2 16 40 0
6 16 55 0
6 16 73 0
2 16 84 0
3 16 85 0
10 16 121 0
5 16 134 0
5 17 -124 0
2 17 -98 0
5 17 -83 0
3 17 -44 0
2 17 -43 0
5 17 -37 0
7 17 24 0
8 17 36 0
5 17 78 0
2 17 93 0
9 17 104 0
2 17 125 0
4 17 128 0
5 18 -139 0
9 18 -74 0
3 18 -60 0
4 18 27 0
3 18 120 0
4 18 126 0
5 19 -127 0
9 19 -123 0
7 19 -121 0
2 19 -89 0
9 19 -72 0
8 19 -35 0
7 19 46 0
4 20 -76 0
10 20 -54 0
9 20 -44 0
4 20 94 0
5 21 -103 0
4 21 -88 0
5 21 -51 0
9 21 -48 0
6 21 -47 0
7 21 -45 0
4 21 40 0
3 21 92 0
5 21 123 0
8 22 -77 0
4 22 -63 0
4 22 -43 0
9 22 -42 0
7 22 -23 0
8 22 23 0
8 22 44 0
9 23 -137 0
2 23 -128 0
10 23 -100 0
3 23 57 0
6 23 109 0
8 23 125 0
8 24 -118 0
7 24 -116 0
7 24 -111 0
6 24 28 0
4 24 60 0
2 24 98 0
6 25 -136 0
3 25 -98 0
5 25 -35 0
10 25 37 0
6 25 40 0
9 25 104 0
9 25 105 0
2 25 121 0
5 25 135 0
2 25 140 0
4 26 -105 0
9 26 -88 0
9 26 -84 0
7 26 -78 0
3 26 -40 0
8 26 41 0
4 26 46 0
1 26 74 0
6 26 76 0
3 26 86 0
2 26 113 0
5 26 126 0
5 27 -133 0
7 27 -107 0
4 27 -96 0
3 27 -72 0
3 27 -59 0
10 27 -47 0
9 27 -38 0
6 27 77 0
1 27 111 0
5 28 -133 0
9 28 -131 0
5 28 -58 0
5 28 -29 0
5 28 82 0
4 28 96 0
3 29 -115 0
6 29 71 0
8 29 101 0
5 29 108 0
9 29 133 0
8 30 -118 0
4 30 -105 0
6 30 -67 0
10 30 -35 0
1 30 39 0
9 30 76 0
10 30 77 0
6 30 123 0
3 30 140 0
2 31 -134 0
2 31 -95 0
6 31 -45 0
8 31 74 0
4 31 85 0
9 31 115 0
10 31 121 0
4 32 -91 0
7 32 -66 0
6 32 -55 0
5 33 -112 0
2 33 -80 0
5 33 -70 0
9 33 46 0
6 33 103 0
9 33 115 0
3 33 130 0
8 34 -128 0
5 34 -99 0
1 34 -92 0
2 34 -68 0
4 34 -61 0
8 34 65 0
5 35 -111 0
9 35 -54 0
8 35 -44 0
6 35 92 0
8 36 -88 0
8 36 -61 0
2 36 77 0
10 36 102 0
9 37 -98 0
2 37 -62 0
6 37 -60 0
7 37 76 0
6 37 129 0
5 38 -124 0
7 38 -108 0
9 38 -100 0
2 38 -84 0
3 38 -54 0
4 38 109 0
3 39 -120 0
7 39 -64 0
3 39 -47 0
8 39 60 0
6 39 96 0
5 40 -92 0
5 40 -90 0
2 40 -49 0
5 40 71 0
7 40 97 0
5 40 137 0
3 41 -128 0
2 41 -108 0
4 41 -86 0
1 41 -73 0
7 41 -45 0
2 41 52 0
9 41 88 0
7 41 112 0
2 42 43 0
8 42 60 0
9 42 62 0
7 42 75 0
4 42 140 0
4 43 -127 0
2 43 -108 0
10 43 -103 0
3 43 -76 0
3 43 67 0
3 43 80 0
6 43 139 0
5 44 -128 0
9 44 -107 0
8 44 -76 0
3 44 -53 0
5 44 -45 0
2 44 58 0
7 44 113 0
6 44 114 0
6 45 -78 0
4 45 -64 0
1 45 -61 0
9 45 106 0
5 45 140 0
4 46 -65 0
9 46 87 0
2 46 91 0
5 46 104 0
8 46 139 0
8 47 -98 0
6 47 -82 0
5 47 90 0
7 48 -124 0
4 48 -114 0
8 48 75 0
1 48 85 0
5 48 99 0
8 48 105 0
4 48 116 0
7 48 138 0
1 49 -121 0
9 49 -99 0
2 49 -90 0
9 49 -79 0
6 49 -75 0
4 49 87 0
5 49 128 0
8 49 131 0
1 50 -79 0
10 50 84 0
4 50 95 0
4 50 100 0
10 51 -124 0
2 51 -123 0
8 51 -100 0
4 51 -79 0
2 51 -75 0
8 51 75 0
8 51 97 0
8 51 119 0
6 52 -128 0
4 52 -91 0
3 52 -81 0
3 53 -121 0
7 53 -107 0
2 53 -106 0
3 53 -76 0
1 53 71 0
9 53 82 0
6 53 122 0
7 53 130 0
9 54 -130 0
4 54 -99 0
9 54 64 0
8 54 89 0
10 54 132 0
3 55 -81 0
2 55 76 0
7 55 82 0
3 55 85 0
2 55 137 0
1 56 -139 0
6 56 -133 0
2 56 -121 0
3 56 -111 0
4 56 -94 0
5 56 -86 0
3 56 -73 0
2 56 -58 0
2 56 85 0
1 56 96 0
8 57 -85 0
5 57 -83 0
4 57 -65 0
10 57 88 0
2 57 112 0
4 57 116 0
3 58 -122 0
2 58 -85 0
3 58 74 0
8 58 76 0
9 58 104 0
2 58 114 0
2 58 129 0
8 59 -128 0
9 59 -115 0
2 59 69 0
9 59 71 0
1 59 78 0
9 59 98 0
2 60 -138 0
2 60 -104 0
9 60 -85 0
7 60 106 0
3 60 127 0
2 60 130 0
10 60 139 0
7 61 -129 0
4 61 -89 0
2 61 -77 0
8 61 -74 0
4 61 83 0
8 62 -122 0
4 62 -119 0
7 62 -104 0
8 62 -87 0
5 62 65 0
1 62 130 0
10 62 138 0
6 63 -106 0
3 63 -104 0
8 63 -97 0
5 63 -75 0
4 63 70 0
9 63 98 0
2 63 114 0
3 63 115 0
1 63 140 0
2 64 -114 0
4 64 -94 0
9 64 -82 0
3 64 -77 0
5 64 99 0
8 64 126 0
9 64 134 0
7 65 -132 0
8 65 -126 0
8 65 -81 0
4 65 83 0
2 65 117 0
9 65 135 0
3 66 -117 0
5 66 -68 0
7 66 69 0
6 66 104 0
2 66 138 0
5 67 -94 0
9 67 -82 0
2 67 -71 0
5 67 87 0
5 67 106 0
4 67 131 0
2 68 -117 0
9 68 72 0
8 68 122 0
1 68 126 0
2 69 -121 0
10 69 -102 0
2 69 -93 0
3 69 109 0
3 70 74 0
10 70 99 0
4 71 -100 0
7 71 88 0
7 71 99 0
3 71 119 0
5 72 84 0
5 72 92 0
1 72 116 0
8 72 117 0
6 72 128 0
9 73 -130 0
1 73 -95 0
1 73 82 0
6 73 107 0
6 73 130 0
2 74 -138 0
1 74 -130 0
5 74 -112 0
3 75 -140 0
5 75 -122 0
9 75 -121 0
7 75 88 0
6 75 113 0
9 75 130 0
4 76 -117 0
7 76 -98 0
10 76 -89 0
4 76 -86 0
7 76 -83 0
3 76 -80 0
6 76 81 0
7 77 -140 0
6 77 -131 0
4 77 -102 0
4 77 124 0
8 78 84 0
8 78 109 0
8 78 124 0
8 79 -105 0
6 79 -92 0
4 79 107 0
8 80 -137 0
6 80 -103 0
5 80 90 0
4 80 99 0
1 80 114 0
6 80 132 0
4 81 -135 0
5 81 112 0
8 82 -125 0
8 82 -86 0
5 82 86 0
5 82 94 0
4 83 -134 0
3 83 -121 0
8 83 -104 0
10 83 92 0
3 83 111 0
2 83 122 0
7 83 132 0
5 83 139 0
7 84 133 0
4 84 137 0
10 85 -102 0
10 85 108 0
7 85 128 0
8 86 -130 0
8 87 -92 0
5 87 103 0
6 87 105 0
3 88 -129 0
8 88 -108 0
4 88 139 0
8 89 -130 0
3 89 -93 0
7 89 92 0
9 89 111 0
8 90 -120 0
1 90 -110 0
4 91 -138 0
6 91 -101 0
8 91 -94 0
8 91 109 0
10 91 125 0
2 92 -122 0
1 92 -112 0
7 92 101 0
1 92 122 0
3 92 124 0
8 93 -127 0
7 93 113 0
7 94 -127 0
5 94 131 0
10 95 -140 0
7 95 -139 0
5 95 -118 0
7 95 -113 0
4 96 -127 0
3 96 -113 0
2 97 -119 0
10 97 -118 0
5 97 -108 0
9 97 -98 0
4 97 111 0
4 97 124 0
2 98 -137 0
10 98 -136 0
2 98 -119 0
9 98 128 0
10 99 -132 0
5 99 -129 0
5 99 -126 0
8 99 118 0
3 100 108 0
5 101 -122 0
8 101 -119 0
3 101 -102 0
3 101 134 0
9 102 -136 0
5 102 -116 0
10 102 105 0
6 103 118 0
2 103 132 0
5 103 135 0
6 104 -120 0
8 104 113 0
9 104 129 0
2 104 131 0
2 106 -117 0
2 106 -107 0
3 107 -118 0
2 108 -125 0
6 109 119 0
2 109 120 0
5 110 -129 0
8 110 129 0
3 111 -128 0
5 111 -117 0
10 111 129 0
3 112 -127 0
5 112 119 0
5 112 127 0
7 112 131 0
2 114 -136 0
7 114 -129 0
2 114 -115 0
10 114 117 0
9 115 133 0
4 117 -139 0
9 117 -136 0
4 118 -122 0
3 118 139 0
4 120 133 0
5 120 137 0
7 121 133 0
9 122 -134 0
3 124 -130 0
6 124 -126 0
1 125 -138 0
4 127 135 0
7 128 131 0
3 129 -138 0
5 130 -132 0
3 130 135 0
4 131 134 0
9 131 135 0
2 132 134 0
7 132 138 0
4 139 -140 0
